decision_x1=[0,4];
decision_x2=[0,4];
decision_x3=[0,4];
decision_x4=[0,4];
decision_x5=[0,4];
decision_x6=[0,4];
decision_x7=[0,4];
decision_x8=[0,4];
random_y1=[0,4];
random_y2=[0,4];
random_y3=[0,4];
random_y4=[0,4];
constraint_x3_x1=[
0,1,3.9|
0,2,1.8|
0,3,8|
0,4,8.7|
1,0,4.4|
1,2,9.9|
1,3,3.8|
1,4,5.9|
2,0,2.2|
2,1,9.1|
2,3,8.1|
2,4,0.88|
3,0,6.9|
3,1,5.4|
3,2,6.1|
3,4,6.6|
4,0,0.41|
4,1,4.3|
4,2,9.8|
4,3,1.5|
];
constraint_x3_x2=[
0,1,8.7|
0,2,1.6|
0,3,3.8|
0,4,10|
1,0,5.6|
1,2,7.2|
1,3,0.65|
1,4,3.8|
2,0,2|
2,1,9.6|
2,3,9.7|
2,4,5.9|
3,0,3|
3,1,8.1|
3,2,9.1|
3,4,6|
4,0,2.4|
4,1,2.4|
4,2,0.57|
4,3,6.7|
];
constraint_x4_x1=[
0,1,7.4|
0,2,0.68|
0,3,0.96|
0,4,2.8|
1,0,3.7|
1,2,2.4|
1,3,3.2|
1,4,5.2|
2,0,8.7|
2,1,5.4|
2,3,2.1|
2,4,6.2|
3,0,8.8|
3,1,6.9|
3,2,0.45|
3,4,7.8|
4,0,3.3|
4,1,1.6|
4,2,4.1|
4,3,6.2|
];
constraint_x4_x3=[
0,1,6.6|
0,2,1.6|
0,3,8|
0,4,6.3|
1,0,3.9|
1,2,2.9|
1,3,5.9|
1,4,0.35|
2,0,1.5|
2,1,1.7|
2,3,5.9|
2,4,6.7|
3,0,0.37|
3,1,6|
3,2,0.65|
3,4,1.6|
4,0,3.9|
4,1,5.1|
4,2,0.46|
4,3,5.8|
];
constraint_x5_x1=[
0,1,6.2|
0,2,2.4|
0,3,1.6|
0,4,4.2|
1,0,1|
1,2,7.1|
1,3,5.1|
1,4,4.7|
2,0,4.9|
2,1,8.6|
2,3,7.2|
2,4,4.3|
3,0,6.2|
3,1,0.27|
3,2,0.22|
3,4,2.5|
4,0,4.2|
4,1,8|
4,2,7.7|
4,3,5.7|
];
constraint_x5_x2=[
0,1,6.6|
0,2,2.1|
0,3,5.4|
0,4,7.6|
1,0,6.5|
1,2,3.4|
1,3,6.9|
1,4,3.4|
2,0,0.94|
2,1,1.4|
2,3,8.1|
2,4,8.5|
3,0,2.8|
3,1,4.3|
3,2,2.9|
3,4,7.8|
4,0,9.2|
4,1,2.8|
4,2,3.5|
4,3,7.7|
];
constraint_x5_x4=[
0,1,6.9|
0,2,2|
0,3,8.8|
0,4,3.1|
1,0,6.1|
1,2,6.3|
1,3,4|
1,4,4.4|
2,0,4.4|
2,1,6.1|
2,3,7.2|
2,4,7.1|
3,0,9.4|
3,1,9|
3,2,7.6|
3,4,1.7|
4,0,4.5|
4,1,6.5|
4,2,0.12|
4,3,7.5|
];
constraint_x6_x2=[
0,1,1|
0,2,3.9|
0,3,6.5|
0,4,8.7|
1,0,1.6|
1,2,4.9|
1,3,2|
1,4,3.5|
2,0,4.1|
2,1,1.3|
2,3,2.6|
2,4,1.7|
3,0,4.8|
3,1,1.9|
3,2,3.1|
3,4,6.6|
4,0,2.1|
4,1,0.9|
4,2,2.3|
4,3,3.3|
];
constraint_x7_x1=[
0,1,4.3|
0,2,0.18|
0,3,0.12|
0,4,0.05|
1,0,3.4|
1,2,3.5|
1,3,1.2|
1,4,6.9|
2,0,0.35|
2,1,8.3|
2,3,1.5|
2,4,4|
3,0,6.1|
3,1,5.4|
3,2,3.5|
3,4,5.1|
4,0,9.9|
4,1,2.6|
4,2,10|
4,3,6.5|
];
constraint_x7_x3=[
0,1,9.6|
0,2,5.2|
0,3,7.7|
0,4,3.4|
1,0,0.86|
1,2,3.7|
1,3,2.2|
1,4,3.1|
2,0,7.5|
2,1,3.5|
2,3,6.9|
2,4,6.2|
3,0,4.3|
3,1,9|
3,2,4.7|
3,4,2.8|
4,0,0.6|
4,1,0.24|
4,2,1.8|
4,3,0.93|
];
constraint_x7_x6=[
0,1,3.9|
0,2,4.6|
0,3,8.9|
0,4,1.7|
1,0,3|
1,2,4.6|
1,3,10|
1,4,7|
2,0,3.3|
2,1,8.7|
2,3,6.1|
2,4,1.7|
3,0,7.3|
3,1,0.55|
3,2,6.3|
3,4,1.1|
4,0,6.7|
4,1,0.0024|
4,2,6.2|
4,3,6.9|
];
constraint_x8_x2=[
0,1,5.8|
0,2,9|
0,3,8.4|
0,4,9.6|
1,0,0.71|
1,2,3.9|
1,3,7.7|
1,4,1.5|
2,0,4.9|
2,1,3.2|
2,3,9.2|
2,4,8.4|
3,0,9|
3,1,9.3|
3,2,4.2|
3,4,3.9|
4,0,2.3|
4,1,5.8|
4,2,5.4|
4,3,0.56|
];
constraint_x8_x4=[
0,1,0.78|
0,2,1.5|
0,3,2.4|
0,4,6.2|
1,0,3.7|
1,2,5.5|
1,3,3.9|
1,4,9.2|
2,0,7|
2,1,5.6|
2,3,9.5|
2,4,9.6|
3,0,1.8|
3,1,3.9|
3,2,8.4|
3,4,9.5|
4,0,4.5|
4,1,6|
4,2,9.9|
4,3,7.3|
];
constraint_x8_x5=[
0,1,5|
0,2,7.8|
0,3,1.5|
0,4,5.6|
1,0,1.4|
1,2,7.6|
1,3,6.6|
1,4,1.5|
2,0,6.6|
2,1,2.2|
2,3,9.7|
2,4,7.4|
3,0,0.87|
3,1,9.4|
3,2,9.3|
3,4,9.6|
4,0,2.4|
4,1,0.48|
4,2,3.2|
4,3,1.1|
];
constraint_x1_y1=[
0,0,6.3|
0,1,2.8|
0,2,3.4|
0,3,0.16|
0,4,1|
1,0,2.8|
1,1,2.8|
1,2,7.4|
1,3,8.7|
1,4,6.6|
2,0,6.8|
2,1,5.3|
2,2,8.3|
2,3,8|
2,4,6|
3,0,2.9|
3,1,5.7|
3,2,2.2|
3,3,6.7|
3,4,9.9|
4,0,7|
4,1,6.6|
4,2,8.9|
4,3,4.6|
4,4,2.3|
];
constraint_x2_y2=[
0,0,6|
0,1,6.8|
0,2,8.2|
0,3,0.99|
0,4,6.5|
1,0,9.2|
1,1,5.2|
1,2,7.7|
1,3,4.6|
1,4,1.2|
2,0,1.3|
2,1,6.4|
2,2,4.7|
2,3,6|
2,4,7.3|
3,0,4.3|
3,1,8.9|
3,2,7.4|
3,3,7.6|
3,4,2.4|
4,0,2.3|
4,1,0.2|
4,2,3|
4,3,9.2|
4,4,5.4|
];
constraint_x3_y3=[
0,0,9.3|
0,1,7.7|
0,2,3.2|
0,3,0.2|
0,4,8.7|
1,0,4.3|
1,1,7.1|
1,2,1.1|
1,3,7.2|
1,4,9.3|
2,0,6.3|
2,1,7.2|
2,2,7.5|
2,3,3.6|
2,4,9.2|
3,0,9.1|
3,1,5|
3,2,7.8|
3,3,1.3|
3,4,4.3|
4,0,0.058|
4,1,9.5|
4,2,8.8|
4,3,3.8|
4,4,8.2|
];
constraint_x4_y4=[
0,0,3.6|
0,1,3.8|
0,2,3.3|
0,3,4.6|
0,4,9.1|
1,0,3.6|
1,1,3.6|
1,2,9.4|
1,3,9.4|
1,4,2.7|
2,0,0.79|
2,1,5.9|
2,2,3.9|
2,3,2|
2,4,1.6|
3,0,2.2|
3,1,3.9|
3,2,2.5|
3,3,3.2|
3,4,7.1|
4,0,7.8|
4,1,3.8|
4,2,9.5|
4,3,4.5|
4,4,1.4|
];
initial_distribution_y1=[0.0077,0.4,0.047,0.04,0.5];
initial_distribution_y2=[0.042,0.063,0.32,0.33,0.25];
initial_distribution_y3=[0.33,0.11,0.21,0.14,0.22];
initial_distribution_y4=[0.14,0.21,0.13,0.027,0.5];
transition_y1=[
0.25,0.22,0.21,0.027,0.29|
0.31,0.12,0.26,0.043,0.27|
0.3,0.094,0.057,0.24,0.3|
0.41,0.015,0.098,0.41,0.063|
0.22,0.17,0.025,0.27,0.32|
];
transition_y2=[
0.3,0.05,0.28,0.055,0.31|
0.044,0.36,0.026,0.43,0.15|
0.079,0.066,0.12,0.14,0.59|
0.22,0.24,0.36,0.13,0.058|
0.27,0.23,0.015,0.35,0.13|
];
transition_y3=[
0.046,0.29,0.33,0.26,0.082|
0.32,0.11,0.026,0.24,0.3|
0.26,0.046,0.31,0.21,0.18|
0.28,0.053,0.24,0.27,0.17|
0.22,0.1,0.11,0.27,0.29|
];
transition_y4=[
0.29,0.047,0.29,0.075,0.3|
0.24,0.16,0.23,0.22,0.14|
0.12,0.087,0.29,0.25,0.25|
0.59,0.012,0.058,0.14,0.2|
0.23,0.49,0.012,0.19,0.083|
];
